npieces = 10;	
nplayers = 10;	
duration = [5, 4, 10, 6, 4, 1, 6, 2, 3, 10];
rehearsal = [[1, 0, 1, 0, 1, 0, 1, 0, 0, 1], [0, 0, 1, 0, 1, 0, 1, 1, 1, 1], [1, 0, 0, 0, 0, 0, 0, 0, 0, 0], [1, 0, 0, 1, 1, 1, 1, 0, 1, 1], [1, 0, 0, 1, 0, 1, 1, 0, 1, 0], [0, 0, 0, 1, 0, 1, 0, 0, 0, 0], [1, 1, 0, 0, 1, 1, 0, 1, 1, 1], [1, 1, 1, 1, 0, 1, 0, 1, 1, 0], [0, 1, 1, 0, 1, 1, 0, 0, 0, 1], [1, 1, 1, 0, 0, 1, 1, 1, 0, 1]];